c Here is a file called eg2.txt
p cnf 10 15
4 -7 -5 4 9 -2 5 2 10 9 0
5 7 10 -9 -3 -8 9 0
-1 2 0
-2 -9 5 -5 3 -9 5 0
-8 6 -7 -7 9 0
-10 -8 8 1 4 -2 7 -5 0
6 10 1 0
10 7 6 -9 6 0
1 0
7 4 8 -10 10 4 -5 0
-2 7 0
3 9 10 2 5 8 -9 -1 4 -7 0
-6 4 6 6 -2 2 -2 -2 0
4 4 -5 2 -2 5 0
-1 10 9 3 -10 10 9 -6 9 0